Version identifier: 12.10.0.0 | 2019-11-26 | 843d4de
CPXPARAM_WorkMem                                 28672
Tried aggregator 2 times.
Aggregator did 45 substitutions.
Reduced MIP has 153 rows, 180 columns, and 705 nonzeros.
Reduced MIP has 180 binaries, 0 generals, 0 SOSs, and 0 indicators.
Presolve time = 0,00 sec. (0,68 ticks)
Found incumbent of value 735,000000 after 0,00 sec. (1,10 ticks)
Probing time = 0,00 sec. (0,25 ticks)
Tried aggregator 1 time.
Detecting symmetries...
MIP Presolve eliminated 30 rows and 0 columns.
MIP Presolve added 60 rows and 0 columns.
Reduced MIP has 183 rows, 180 columns, and 735 nonzeros.
Reduced MIP has 180 binaries, 0 generals, 0 SOSs, and 0 indicators.
Presolve time = 0,00 sec. (0,85 ticks)
Probing time = 0,00 sec. (0,24 ticks)
Clique table members: 495.
MIP emphasis: balance optimality and feasibility.
MIP search method: dynamic search.
Parallel mode: deterministic, using up to 16 threads.
Root relaxation solution time = 0,00 sec. (0,63 ticks)

        Nodes                                         Cuts/
   Node  Left     Objective  IInf  Best Integer    Best Bound    ItCnt     Gap

*     0+    0                          735,0000        0,0000           100,00%
*     0+    0                          559,0000        0,0000           100,00%
*     0+    0                          536,0000        0,0000           100,00%
*     0+    0                          516,0000        0,0000           100,00%
      0     0      245,0000   153      516,0000      245,0000       72   52,52%
      0     0      246,5309   153      516,0000     Cuts: 150      150   52,22%
      0     0      253,9454   153      516,0000     Cuts: 147      207   50,79%
      0     0      254,8989   153      516,0000     Cuts: 145      236   50,60%
      0     0      255,2327   153      516,0000     Cuts: 145      258   50,54%
      0     0      255,6988   153      516,0000     Cuts: 145      284   50,45%
      0     0      256,2835   153      516,0000     Cuts: 144      321   50,33%
      0     0      257,6818   153      516,0000     Cuts: 145      369   50,06%
      0     0      258,0553   153      516,0000  ZeroHalf: 20      387   49,99%
      0     0      258,7926   153      516,0000     Cuts: 106      434   49,85%
      0     0      260,0132   153      516,0000     Cuts: 145      503   49,61%
      0     0      260,6089   153      516,0000     Cuts: 103      552   49,49%
      0     0      261,0750   153      516,0000      Cuts: 23      601   49,40%
      0     0      261,6101   153      516,0000     Cuts: 104      650   49,30%
      0     0      261,9592   153      516,0000      Cuts: 38      707   49,23%
*     0+    0                          465,0000      261,9592            43,66%
      0     0      262,2765   153      465,0000      Cuts: 92      756   27,07%
      0     0      262,5889   153      465,0000      Cuts: 89      802   27,07%
      0     2      262,5889   179      465,0000      339,1167      802   27,07%
Elapsed time = 0,25 sec. (135,32 ticks, tree = 0,02 MB, solutions = 5)

Clique cuts applied:  81
Cover cuts applied:  197
Mixed integer rounding cuts applied:  50
Zero-half cuts applied:  29
Lift and project cuts applied:  1
Gomory fractional cuts applied:  6

Root node processing (before b&c):
  Real time             =    0,25 sec. (134,90 ticks)
Parallel b&c, 16 threads:
  Real time             =    0,25 sec. (127,20 ticks)
  Sync time (average)   =    0,12 sec.
  Wait time (average)   =    0,00 sec.
                          ------------
Total (root+branch&cut) =    0,49 sec. (262,10 ticks)
